p tw 33 36
1 2
2 13
3 21
4 5
5 6
6 7
7 8
8 9
8 16
9 10
10 11
11 12
11 16
12 14
13 24
14 15
15 6
16 17
17 18
17 21
18 19
19 20
20 21
21 22
22 23
23 25
24 28
25 26
26 27
28 29
29 30
30 31
30 4
31 32
32 33
33 3
